g3 0 1 0	# problem nonmsqrt
 9 0 1 0 0	# vars, constraints, objectives, ranges, eqns
 0 1	# nonlinear constraints, objectives
 0 0	# network constraints: nonlinear, linear
 0 9 0	# nonlinear vars in constraints, objectives, both
 0 0 0 1	# linear network variables; functions; arith, flags
 0 0 0 0 0	# discrete variables: binary, integer, nonlinear (b,c,o)
 0 9	# nonzeros in Jacobian, gradients
 0 0	# max name lengths: constraints, variables
 0 0 0 0 0	# common exprs: b,c,o,c1,o1
b
3
3
3
3
3
3
3
3
3
x9
0 0.16829419696157932
1 -0.15136049906158566
2 0.08242369704835133
3 -0.057580663333013066
4 -0.026470350019554608
5 -0.19835577068862317
6 0.7630021222075776
7 0.18400520763935813
8 -0.12597759885489077
O0 0
o54
9
o5
o0
n-0.9259593667331212
o54
3
o2
v0
v0
o2
v1
v0
o2
v2
v0
n2
o5
o0
n0.15750346905483398
o54
3
o2
v0
v1
o2
v1
v1
o2
v2
v1
n2
o5
o0
n-0.8377779726409494
o54
3
o2
v0
v2
o2
v1
v2
o2
v2
v2
n2
o5
o0
n0.20415777958403747
o54
3
o2
v3
v3
o2
v4
v3
o2
v5
v3
n2
o5
o0
n0.6770594350871318
o54
3
o2
v3
v4
o2
v4
v4
o2
v5
v4
n2
o5
o0
n-0.6373229809621763
o54
3
o2
v3
v5
o2
v4
v5
o2
v5
v5
n2
o5
o0
n0.2648785478150761
o54
3
o2
v6
v6
o2
v7
v6
o2
v8
v6
n2
o5
o0
n0.7012804121709143
o54
3
o2
v6
v7
o2
v7
v7
o2
v8
v7
n2
o5
o0
n0.5157034839695309
o54
3
o2
v6
v8
o2
v7
v8
o2
v8
v8
n2
k8
0
0
0
0
0
0
0
0
G0 9
0 0
1 0
2 0
3 0
4 0
5 0
6 0
7 0
8 0
